************************************************************************
file with basedata            : cr134_.bas
initial value random generator: 147471118
************************************************************************
projects                      :  1
jobs (incl. supersource/sink ):  18
horizon                       :  125
RESOURCES
  - renewable                 :  1   R
  - nonrenewable              :  2   N
  - doubly constrained        :  0   D
************************************************************************
PROJECT INFORMATION:
pronr.  #jobs rel.date duedate tardcost  MPM-Time
    1     16      0       11       10       11
************************************************************************
PRECEDENCE RELATIONS:
jobnr.    #modes  #successors   successors
   1        1          3           2   3   4
   2        3          3           8  10  12
   3        3          2          12  14
   4        3          3           5   7  17
   5        3          1           6
   6        3          3           9  13  15
   7        3          3           9  11  12
   8        3          3          11  13  17
   9        3          1          14
  10        3          3          11  13  15
  11        3          1          16
  12        3          2          15  16
  13        3          1          14
  14        3          1          16
  15        3          1          18
  16        3          1          18
  17        3          1          18
  18        1          0        
************************************************************************
REQUESTS/DURATIONS:
jobnr. mode duration  R 1  N 1  N 2
------------------------------------------------------------------------
  1      1     0       0    0    0
  2      1     4       0    2    9
         2     5       0    2    6
         3     8       8    2    5
  3      1     1       0    7    4
         2     7       0    7    3
         3     8       0    6    2
  4      1     1       3    9    3
         2     2       3    7    2
         3     8       0    5    1
  5      1     5       6    5    6
         2     5       0    6    6
         3     8       0    4    6
  6      1     2       0    2    8
         2     4      10    2    6
         3    10       0    2    4
  7      1     3       3    8    8
         2     5       0    7    6
         3     9       0    4    5
  8      1     1       6    5    6
         2     4       5    4    6
         3    10       0    3    5
  9      1     1       0    2    9
         2     3       0    2    6
         3     9       0    1    5
 10      1     2       8   10    9
         2     3       0    9    6
         3     7       2    7    3
 11      1     3       4   10    6
         2     5       0    4    6
         3     7       0    2    5
 12      1     4       5    3   10
         2     7       5    3    8
         3     9       5    2    7
 13      1     1       4    8    2
         2     5       2    7    2
         3     6       1    6    1
 14      1     1       6    6    7
         2     2       0    5    7
         3     4       0    5    6
 15      1     1       0    5    1
         2     4       0    3    1
         3    10       5    1    1
 16      1     1       5    5    3
         2     4       4    5    2
         3     6       3    2    2
 17      1     5       9    8   10
         2     6       0    5   10
         3     6       8    3   10
 18      1     0       0    0    0
************************************************************************
RESOURCEAVAILABILITIES:
  R 1  N 1  N 2
   19   65   76
************************************************************************
